NAME          ClpDefau
ROWS
 N  OBJROW
 L  R_304_0
 L  R_304_1
 L  R_304_2
 L  R_304_3
 L  R_304_4
 L  R_304_5
 L  R_304_6
 L  R_304_7
 L  R_304_8
 L  R_304_9
 L  R_304_10
 L  R_304_11
 L  R_304_12
 L  R_304_13
 L  R_304_14
 L  R_304_15
 L  R_304_16
 L  R_304_17
 L  R_304_18
 L  R_304_19
 L  R_304_20
 L  R_304_21
 L  R_304_22
 L  R_304_23
 L  R_304_24
 L  R_304_25
 L  R_304_26
 L  R_304_27
 L  R_304_28
 L  R_304_29
 L  R_304_30
 L  R_304_31
COLUMNS
    x_0       OBJROW     -8.           R_304_0   9.          
    x_0       R_304_1   3.             R_304_2   1.          
    x_0       R_304_3   3.             R_304_4   9.          
    x_0       R_304_5   9.             R_304_6   3.          
    x_0       R_304_8   7.             R_304_9   6.          
    x_0       R_304_10  6.             R_304_11  8.          
    x_0       R_304_12  7.             R_304_13  8.          
    x_0       R_304_14  4.             R_304_15  8.          
    x_0       R_304_16  6.             R_304_17  8.          
    x_0       R_304_19  10.            R_304_20  9.          
    x_0       R_304_21  8.             R_304_22  6.          
    x_0       R_304_26  8.             R_304_27  9.          
    x_0       R_304_28  9.             R_304_29  10.         
    x_0       R_304_30  4.             R_304_31  6.          
    x_1       OBJROW     -12.          R_304_1   2.          
    x_1       R_304_2   6.             R_304_3   4.          
    x_1       R_304_5   10.            R_304_6   5.          
    x_1       R_304_7   2.             R_304_8   3.          
    x_1       R_304_10  4.             R_304_12  1.          
    x_1       R_304_13  6.             R_304_14  1.          
    x_1       R_304_15  2.             R_304_16  1.          
    x_1       R_304_17  3.             R_304_19  3.          
    x_1       R_304_20  1.             R_304_21  1.          
    x_1       R_304_22  4.             R_304_23  1.          
    x_1       R_304_24  10.            R_304_25  2.          
    x_1       R_304_26  8.             R_304_27  8.          
    x_1       R_304_28  10.            R_304_29  5.          
    x_1       R_304_30  10.            R_304_31  8.          
    x_2       OBJROW     -11.          R_304_1   6.          
    x_2       R_304_3   3.             R_304_4   7.          
    x_2       R_304_5   6.             R_304_6   6.          
    x_2       R_304_7   10.            R_304_9   9.          
    x_2       R_304_11  5.             R_304_12  3.          
    x_2       R_304_13  8.             R_304_14  9.          
    x_2       R_304_16  1.             R_304_18  8.          
    x_2       R_304_19  2.             R_304_20  10.         
    x_2       R_304_21  10.            R_304_22  5.          
    x_2       R_304_23  5.             R_304_24  1.          
    x_2       R_304_25  7.             R_304_26  2.          
    x_2       R_304_27  2.             R_304_28  2.          
    x_2       R_304_29  4.             R_304_30  1.          
    x_2       R_304_31  8.          
    x_3       OBJROW     -47.          R_304_0   9.          
    x_3       R_304_1   4.             R_304_2   4.          
    x_3       R_304_3   7.             R_304_4   1.          
    x_3       R_304_5   1.             R_304_8   2.          
    x_3       R_304_9   8.             R_304_10  9.          
    x_3       R_304_12  6.             R_304_13  6.          
    x_3       R_304_14  7.             R_304_15  5.          
    x_3       R_304_16  1.             R_304_18  8.          
    x_3       R_304_19  10.            R_304_20  1.          
    x_3       R_304_21  6.             R_304_22  2.          
    x_3       R_304_23  8.             R_304_24  10.         
    x_3       R_304_25  8.             R_304_26  6.          
    x_3       R_304_27  2.             R_304_28  2.          
    x_3       R_304_29  6.             R_304_30  4.          
    x_3       R_304_31  1.          
    x_4       OBJROW     -22.          R_304_0   8.          
    x_4       R_304_1   8.             R_304_2   8.          
    x_4       R_304_3   6.             R_304_4   9.          
    x_4       R_304_6   7.             R_304_9   4.          
    x_4       R_304_10  10.            R_304_11  7.          
    x_4       R_304_12  2.             R_304_13  10.         
    x_4       R_304_14  6.             R_304_15  9.          
    x_4       R_304_16  7.             R_304_18  1.          
    x_4       R_304_19  5.             R_304_20  6.          
    x_4       R_304_21  9.             R_304_22  3.          
    x_4       R_304_23  7.             R_304_24  9.          
    x_4       R_304_25  9.             R_304_26  3.          
    x_4       R_304_27  4.             R_304_28  6.          
    x_4       R_304_29  10.            R_304_30  8.          
    x_4       R_304_31  1.          
    x_5       OBJROW     -95.          R_304_1   3.          
    x_5       R_304_2   1.             R_304_3   7.          
    x_5       R_304_4   7.             R_304_5   8.          
    x_5       R_304_6   9.             R_304_7   2.          
    x_5       R_304_8   4.             R_304_9   4.          
    x_5       R_304_10  7.             R_304_12  1.          
    x_5       R_304_13  9.             R_304_14  8.          
    x_5       R_304_15  2.             R_304_16  4.          
    x_5       R_304_17  10.            R_304_18  4.          
    x_5       R_304_20  9.             R_304_21  4.          
    x_5       R_304_22  10.            R_304_23  8.          
    x_5       R_304_25  10.            R_304_26  8.          
    x_5       R_304_27  10.            R_304_28  4.          
    x_5       R_304_30  6.             R_304_31  8.          
    x_6       OBJROW     -86.          R_304_0   2.          
    x_6       R_304_1   8.             R_304_4   9.          
    x_6       R_304_5   2.             R_304_6   6.          
    x_6       R_304_7   7.             R_304_8   3.          
    x_6       R_304_9   8.             R_304_10  8.          
    x_6       R_304_11  3.             R_304_12  9.          
    x_6       R_304_13  1.             R_304_14  9.          
    x_6       R_304_16  4.             R_304_18  3.          
    x_6       R_304_19  9.             R_304_20  5.          
    x_6       R_304_21  6.             R_304_22  5.          
    x_6       R_304_23  7.             R_304_24  2.          
    x_6       R_304_25  4.             R_304_26  9.          
    x_6       R_304_28  9.             R_304_29  5.          
    x_6       R_304_30  8.             R_304_31  9.          
    x_7       OBJROW     -40.          R_304_0   2.          
    x_7       R_304_1   7.             R_304_3   6.          
    x_7       R_304_4   8.             R_304_5   8.          
    x_7       R_304_6   5.             R_304_7   3.          
    x_7       R_304_9   4.             R_304_11  2.          
    x_7       R_304_13  6.             R_304_14  3.          
    x_7       R_304_15  4.             R_304_16  9.          
    x_7       R_304_17  7.             R_304_19  5.          
    x_7       R_304_22  6.             R_304_23  5.          
    x_7       R_304_24  2.             R_304_25  7.          
    x_7       R_304_26  5.             R_304_28  8.          
    x_7       R_304_29  3.             R_304_30  7.          
    x_7       R_304_31  1.          
    x_8       OBJROW     -33.          R_304_0   3.          
    x_8       R_304_1   7.             R_304_2   6.          
    x_8       R_304_3   10.            R_304_4   5.          
    x_8       R_304_5   3.             R_304_6   4.          
    x_8       R_304_8   3.             R_304_9   6.          
    x_8       R_304_10  7.             R_304_11  2.          
    x_8       R_304_12  4.             R_304_13  10.         
    x_8       R_304_14  6.             R_304_15  10.         
    x_8       R_304_16  3.             R_304_17  2.          
    x_8       R_304_18  5.             R_304_19  9.          
    x_8       R_304_20  2.             R_304_21  10.         
    x_8       R_304_23  1.             R_304_24  8.          
    x_8       R_304_25  6.             R_304_26  10.         
    x_8       R_304_27  10.            R_304_28  8.          
    x_8       R_304_31  7.          
    x_9       OBJROW     -78.          R_304_0   8.          
    x_9       R_304_1   2.             R_304_2   10.         
    x_9       R_304_3   9.             R_304_5   5.          
    x_9       R_304_6   1.             R_304_7   6.          
    x_9       R_304_8   1.             R_304_9   2.          
    x_9       R_304_10  8.             R_304_11  8.          
    x_9       R_304_12  8.             R_304_13  1.          
    x_9       R_304_14  9.             R_304_15  1.          
    x_9       R_304_16  1.             R_304_18  9.          
    x_9       R_304_20  8.             R_304_21  9.          
    x_9       R_304_22  2.             R_304_23  1.          
    x_9       R_304_24  7.             R_304_25  7.          
    x_9       R_304_27  9.             R_304_28  3.          
    x_9       R_304_29  3.             R_304_30  4.          
    x_9       R_304_31  4.          
    x_10      OBJROW     -28.          R_304_0   7.          
    x_10      R_304_1   3.             R_304_2   5.          
    x_10      R_304_4   8.             R_304_5   9.          
    x_10      R_304_6   5.             R_304_7   3.          
    x_10      R_304_8   2.             R_304_9   9.          
    x_10      R_304_10  4.             R_304_11  10.         
    x_10      R_304_12  3.             R_304_13  5.          
    x_10      R_304_14  8.             R_304_15  4.          
    x_10      R_304_17  1.             R_304_18  2.          
    x_10      R_304_19  9.             R_304_21  2.          
    x_10      R_304_24  5.             R_304_26  6.          
    x_10      R_304_27  5.             R_304_29  2.          
    x_10      R_304_30  7.             R_304_31  1.          
    x_11      OBJROW     -78.          R_304_0   2.          
    x_11      R_304_1   5.             R_304_3   7.          
    x_11      R_304_4   9.             R_304_5   10.         
    x_11      R_304_6   4.             R_304_7   3.          
    x_11      R_304_8   8.             R_304_11  10.         
    x_11      R_304_12  4.             R_304_13  8.          
    x_11      R_304_14  8.             R_304_16  2.          
    x_11      R_304_17  10.            R_304_18  8.          
    x_11      R_304_19  10.            R_304_20  10.         
    x_11      R_304_22  5.             R_304_24  5.          
    x_11      R_304_25  1.             R_304_26  6.          
    x_11      R_304_27  9.             R_304_28  6.          
    x_11      R_304_30  8.          
    x_12      OBJROW     -5.           R_304_0   10.         
    x_12      R_304_1   4.             R_304_2   10.         
    x_12      R_304_3   2.             R_304_4   8.          
    x_12      R_304_6   8.             R_304_7   4.          
    x_12      R_304_8   5.             R_304_11  10.         
    x_12      R_304_12  6.             R_304_13  7.          
    x_12      R_304_14  4.             R_304_15  9.          
    x_12      R_304_16  4.             R_304_17  10.         
    x_12      R_304_18  7.             R_304_19  8.          
    x_12      R_304_20  8.             R_304_22  4.          
    x_12      R_304_23  9.             R_304_24  2.          
    x_12      R_304_25  9.             R_304_26  1.          
    x_12      R_304_27  7.             R_304_28  9.          
    x_12      R_304_29  6.             R_304_30  9.          
    x_13      OBJROW     -75.          R_304_0   2.          
    x_13      R_304_1   4.             R_304_2   1.          
    x_13      R_304_3   3.             R_304_4   4.          
    x_13      R_304_5   9.             R_304_6   3.          
    x_13      R_304_7   2.             R_304_8   9.          
    x_13      R_304_9   3.             R_304_10  3.          
    x_13      R_304_11  9.             R_304_12  8.          
    x_13      R_304_13  9.             R_304_14  6.          
    x_13      R_304_15  2.             R_304_16  2.          
    x_13      R_304_17  6.             R_304_18  5.          
    x_13      R_304_21  3.             R_304_22  6.          
    x_13      R_304_23  1.             R_304_24  9.          
    x_13      R_304_25  2.             R_304_26  9.          
    x_13      R_304_27  7.             R_304_28  4.          
    x_13      R_304_29  3.             R_304_30  1.          
    x_13      R_304_31  6.          
    x_14      OBJROW     -88.          R_304_0   5.          
    x_14      R_304_1   1.             R_304_3   4.          
    x_14      R_304_4   6.             R_304_5   10.         
    x_14      R_304_7   9.             R_304_8   1.          
    x_14      R_304_9   2.             R_304_10  5.          
    x_14      R_304_11  4.             R_304_12  9.          
    x_14      R_304_15  3.             R_304_16  3.          
    x_14      R_304_17  6.             R_304_18  10.         
    x_14      R_304_19  8.             R_304_21  8.          
    x_14      R_304_22  10.            R_304_25  5.          
    x_14      R_304_26  3.             R_304_27  10.         
    x_14      R_304_28  8.             R_304_29  4.          
    x_14      R_304_30  5.             R_304_31  6.          
    x_15      OBJROW     -21.          R_304_0   1.          
    x_15      R_304_2   1.             R_304_3   1.          
    x_15      R_304_5   10.            R_304_6   5.          
    x_15      R_304_7   8.             R_304_8   10.         
    x_15      R_304_9   4.             R_304_10  9.          
    x_15      R_304_11  5.             R_304_13  7.          
    x_15      R_304_14  4.             R_304_15  7.          
    x_15      R_304_16  10.            R_304_17  9.          
    x_15      R_304_18  7.             R_304_19  6.          
    x_15      R_304_21  3.             R_304_22  3.          
    x_15      R_304_23  8.             R_304_24  3.          
    x_15      R_304_25  6.             R_304_26  7.          
    x_15      R_304_27  5.             R_304_28  1.          
    x_15      R_304_29  1.             R_304_30  2.          
    x_15      R_304_31  6.          
    x_16      OBJROW     -56.          R_304_0   6.          
    x_16      R_304_1   3.             R_304_2   6.          
    x_16      R_304_3   9.             R_304_4   7.          
    x_16      R_304_5   4.             R_304_6   2.          
    x_16      R_304_7   6.             R_304_8   8.          
    x_16      R_304_9   1.             R_304_10  7.          
    x_16      R_304_11  10.            R_304_14  10.         
    x_16      R_304_15  10.            R_304_16  6.          
    x_16      R_304_17  7.             R_304_18  8.          
    x_16      R_304_19  5.             R_304_20  4.          
    x_16      R_304_21  4.             R_304_22  6.          
    x_16      R_304_24  4.             R_304_25  10.         
    x_16      R_304_26  10.            R_304_27  7.          
    x_16      R_304_29  9.             R_304_31  8.          
    x_17      OBJROW     -82.          R_304_0   3.          
    x_17      R_304_1   10.            R_304_4   3.          
    x_17      R_304_7   10.            R_304_8   4.          
    x_17      R_304_9   5.             R_304_10  1.          
    x_17      R_304_11  2.             R_304_12  10.         
    x_17      R_304_13  7.             R_304_14  8.          
    x_17      R_304_15  8.             R_304_17  5.          
    x_17      R_304_18  8.             R_304_19  9.          
    x_17      R_304_20  5.             R_304_21  1.          
    x_17      R_304_22  9.             R_304_23  7.          
    x_17      R_304_25  5.             R_304_26  4.          
    x_17      R_304_28  8.             R_304_29  3.          
    x_18      OBJROW     -51.          R_304_0   5.          
    x_18      R_304_2   4.             R_304_3   4.          
    x_18      R_304_4   2.             R_304_5   6.          
    x_18      R_304_6   9.             R_304_10  3.          
    x_18      R_304_11  7.             R_304_12  4.          
    x_18      R_304_13  1.             R_304_14  6.          
    x_18      R_304_15  2.             R_304_17  3.          
    x_18      R_304_19  7.             R_304_20  8.          
    x_18      R_304_21  5.             R_304_22  3.          
    x_18      R_304_24  2.             R_304_26  3.          
    x_18      R_304_28  9.             R_304_29  4.          
    x_18      R_304_30  4.          
    x_19      OBJROW     -93.          R_304_2   4.          
    x_19      R_304_3   1.             R_304_5   8.          
    x_19      R_304_6   6.             R_304_8   2.          
    x_19      R_304_9   1.             R_304_10  7.          
    x_19      R_304_11  4.             R_304_12  10.         
    x_19      R_304_13  2.             R_304_14  10.         
    x_19      R_304_15  3.             R_304_16  10.         
    x_19      R_304_17  2.             R_304_18  6.          
    x_19      R_304_19  4.             R_304_20  8.          
    x_19      R_304_21  8.             R_304_22  4.          
    x_19      R_304_23  2.             R_304_24  10.         
    x_19      R_304_25  5.             R_304_26  4.          
    x_19      R_304_27  4.             R_304_28  3.          
    x_20      OBJROW     -66.          R_304_0   3.          
    x_20      R_304_2   7.             R_304_3   2.          
    x_20      R_304_4   2.             R_304_6   1.          
    x_20      R_304_7   7.             R_304_10  5.          
    x_20      R_304_12  9.             R_304_14  10.         
    x_20      R_304_15  8.             R_304_17  5.          
    x_20      R_304_19  7.             R_304_20  10.         
    x_20      R_304_21  7.             R_304_22  6.          
    x_20      R_304_23  10.            R_304_24  7.          
    x_20      R_304_26  2.             R_304_29  9.          
    x_20      R_304_30  3.          
    x_21      OBJROW     -48.          R_304_0   2.          
    x_21      R_304_1   4.             R_304_2   9.          
    x_21      R_304_4   3.             R_304_6   8.          
    x_21      R_304_7   9.             R_304_8   6.          
    x_21      R_304_9   4.             R_304_11  7.          
    x_21      R_304_12  7.             R_304_13  5.          
    x_21      R_304_14  3.             R_304_15  4.          
    x_21      R_304_18  4.             R_304_19  5.          
    x_21      R_304_20  10.            R_304_21  1.          
    x_21      R_304_22  7.             R_304_23  1.          
    x_21      R_304_24  8.             R_304_25  6.          
    x_21      R_304_27  1.             R_304_28  3.          
    x_21      R_304_29  4.             R_304_30  8.          
    x_21      R_304_31  9.          
    x_22      OBJROW     -70.          R_304_1   6.          
    x_22      R_304_2   4.             R_304_3   8.          
    x_22      R_304_4   5.             R_304_5   3.          
    x_22      R_304_6   1.             R_304_7   2.          
    x_22      R_304_9   1.             R_304_10  4.          
    x_22      R_304_12  9.             R_304_13  10.         
    x_22      R_304_14  6.             R_304_15  1.          
    x_22      R_304_16  1.             R_304_17  9.          
    x_22      R_304_18  1.             R_304_19  2.          
    x_22      R_304_20  10.            R_304_21  6.          
    x_22      R_304_23  3.             R_304_24  4.          
    x_22      R_304_25  3.             R_304_27  9.          
    x_22      R_304_29  2.             R_304_30  4.          
    x_22      R_304_31  4.          
    x_23      OBJROW     -57.          R_304_0   3.          
    x_23      R_304_1   1.             R_304_2   2.          
    x_23      R_304_3   4.             R_304_4   2.          
    x_23      R_304_6   3.             R_304_7   4.          
    x_23      R_304_9   3.             R_304_10  7.          
    x_23      R_304_11  2.             R_304_12  10.         
    x_23      R_304_13  6.             R_304_14  5.          
    x_23      R_304_16  5.             R_304_19  3.          
    x_23      R_304_20  6.             R_304_21  10.         
    x_23      R_304_22  10.            R_304_23  2.          
    x_23      R_304_25  10.            R_304_26  10.         
    x_23      R_304_27  2.             R_304_28  10.         
    x_23      R_304_29  1.             R_304_30  4.          
    x_23      R_304_31  9.          
    x_24      OBJROW     -65.          R_304_0   7.          
    x_24      R_304_2   6.             R_304_3   3.          
    x_24      R_304_4   5.             R_304_5   6.          
    x_24      R_304_7   1.             R_304_8   4.          
    x_24      R_304_9   8.             R_304_11  4.          
    x_24      R_304_12  2.             R_304_13  2.          
    x_24      R_304_14  7.             R_304_15  10.         
    x_24      R_304_16  9.             R_304_18  1.          
    x_24      R_304_19  4.             R_304_21  5.          
    x_24      R_304_22  9.             R_304_24  3.          
    x_24      R_304_25  5.             R_304_26  10.         
    x_24      R_304_27  1.             R_304_29  8.          
    x_24      R_304_30  10.            R_304_31  4.          
    x_25      OBJROW     -35.          R_304_1   2.          
    x_25      R_304_2   5.             R_304_3   2.          
    x_25      R_304_4   4.             R_304_5   5.          
    x_25      R_304_8   10.            R_304_9   6.          
    x_25      R_304_10  10.            R_304_12  8.          
    x_25      R_304_13  8.             R_304_14  6.          
    x_25      R_304_15  1.             R_304_16  7.          
    x_25      R_304_17  4.             R_304_19  1.          
    x_25      R_304_20  9.             R_304_22  8.          
    x_25      R_304_23  7.             R_304_25  3.          
    x_25      R_304_27  2.             R_304_28  5.          
    x_25      R_304_29  3.             R_304_30  7.          
    x_25      R_304_31  1.          
    x_26      OBJROW     -5.           R_304_0   3.          
    x_26      R_304_1   1.             R_304_2   4.          
    x_26      R_304_3   5.             R_304_4   3.          
    x_26      R_304_5   6.             R_304_6   7.          
    x_26      R_304_8   3.             R_304_9   5.          
    x_26      R_304_10  4.             R_304_11  1.          
    x_26      R_304_14  8.             R_304_16  8.          
    x_26      R_304_19  7.             R_304_21  9.          
    x_26      R_304_22  7.             R_304_23  8.          
    x_26      R_304_24  3.             R_304_25  5.          
    x_26      R_304_26  3.             R_304_27  2.          
    x_26      R_304_28  1.             R_304_29  1.          
    x_26      R_304_30  10.            R_304_31  7.          
    x_27      OBJROW     -4.           R_304_0   10.         
    x_27      R_304_1   3.             R_304_2   4.          
    x_27      R_304_3   6.             R_304_4   1.          
    x_27      R_304_8   6.             R_304_9   8.          
    x_27      R_304_10  3.             R_304_11  10.         
    x_27      R_304_12  2.             R_304_13  9.          
    x_27      R_304_14  2.             R_304_15  5.          
    x_27      R_304_16  5.             R_304_17  4.          
    x_27      R_304_18  1.             R_304_19  1.          
    x_27      R_304_20  10.            R_304_22  7.          
    x_27      R_304_23  8.             R_304_25  1.          
    x_27      R_304_26  1.             R_304_28  6.          
    x_27      R_304_29  2.             R_304_31  5.          
    x_28      OBJROW     -47.          R_304_1   2.          
    x_28      R_304_2   5.             R_304_3   3.          
    x_28      R_304_4   8.             R_304_5   9.          
    x_28      R_304_6   10.            R_304_7   10.         
    x_28      R_304_9   7.             R_304_10  2.          
    x_28      R_304_12  2.             R_304_13  8.          
    x_28      R_304_14  10.            R_304_15  7.          
    x_28      R_304_16  10.            R_304_18  8.          
    x_28      R_304_19  8.             R_304_21  7.          
    x_28      R_304_23  2.             R_304_24  5.          
    x_28      R_304_25  5.             R_304_28  5.          
    x_28      R_304_29  4.             R_304_31  9.          
    x_29      OBJROW     -60.          R_304_0   7.          
    x_29      R_304_1   1.             R_304_2   5.          
    x_29      R_304_3   1.             R_304_4   6.          
    x_29      R_304_5   10.            R_304_6   6.          
    x_29      R_304_8   1.             R_304_9   4.          
    x_29      R_304_10  2.             R_304_11  3.          
    x_29      R_304_12  7.             R_304_14  7.          
    x_29      R_304_16  4.             R_304_17  3.          
    x_29      R_304_18  8.             R_304_19  5.          
    x_29      R_304_22  4.             R_304_23  8.          
    x_29      R_304_24  4.             R_304_25  7.          
    x_29      R_304_26  9.             R_304_27  5.          
    x_29      R_304_28  10.            R_304_30  1.          
    x_29      R_304_31  3.          
    x_30      OBJROW     -41.          R_304_1   5.          
    x_30      R_304_3   4.             R_304_4   2.          
    x_30      R_304_5   5.             R_304_6   6.          
    x_30      R_304_7   3.             R_304_9   5.          
    x_30      R_304_10  8.             R_304_11  9.          
    x_30      R_304_12  3.             R_304_13  1.          
    x_30      R_304_15  7.             R_304_16  4.          
    x_30      R_304_17  9.             R_304_18  8.          
    x_30      R_304_19  5.             R_304_20  7.          
    x_30      R_304_21  1.             R_304_22  6.          
    x_30      R_304_23  9.             R_304_25  4.          
    x_30      R_304_26  7.             R_304_27  4.          
    x_30      R_304_29  5.             R_304_30  4.          
    x_30      R_304_31  2.          
    x_31      OBJROW     -49.          R_304_0   9.          
    x_31      R_304_1   8.             R_304_2   9.          
    x_31      R_304_3   1.             R_304_4   6.          
    x_31      R_304_5   3.             R_304_6   5.          
    x_31      R_304_8   10.            R_304_10  9.          
    x_31      R_304_11  8.             R_304_14  3.          
    x_31      R_304_16  2.             R_304_17  6.          
    x_31      R_304_18  5.             R_304_19  5.          
    x_31      R_304_20  2.             R_304_21  7.          
    x_31      R_304_22  10.            R_304_23  8.          
    x_31      R_304_24  4.             R_304_25  9.          
    x_31      R_304_26  4.             R_304_27  8.          
    x_31      R_304_28  5.             R_304_30  9.          
    x_31      R_304_31  10.         
RHS
    RHS       R_304_0   54.            R_304_1   38.         
    RHS       R_304_2   166.           R_304_3   69.         
    RHS       R_304_4   116.           R_304_5   94.         
    RHS       R_304_6   92.            R_304_7   88.         
    RHS       R_304_8   94.            R_304_9   136.        
    RHS       R_304_10  143.           R_304_11  105.        
    RHS       R_304_12  67.            R_304_13  111.        
    RHS       R_304_14  32.            R_304_15  143.        
    RHS       R_304_16  160.           R_304_17  149.        
    RHS       R_304_18  67.            R_304_19  111.        
    RHS       R_304_20  116.           R_304_21  164.        
    RHS       R_304_22  58.            R_304_23  70.         
    RHS       R_304_24  167.           R_304_25  135.        
    RHS       R_304_26  127.           R_304_27  41.         
    RHS       R_304_28  136.           R_304_29  158.        
    RHS       R_304_30  130.           R_304_31  55.         
BOUNDS
 UI BOUND     x_0       100.        
 UI BOUND     x_1       100.        
 UI BOUND     x_2       100.        
 UI BOUND     x_3       100.        
 UI BOUND     x_4       100.        
 UI BOUND     x_5       100.        
 UI BOUND     x_6       100.        
 UI BOUND     x_7       100.        
 UI BOUND     x_8       100.        
 UI BOUND     x_9       100.        
 UI BOUND     x_10      100.        
 UI BOUND     x_11      100.        
 UI BOUND     x_12      100.        
 UI BOUND     x_13      100.        
 UI BOUND     x_14      100.        
 UI BOUND     x_15      100.        
 UI BOUND     x_16      100.        
 UI BOUND     x_17      100.        
 UI BOUND     x_18      100.        
 UI BOUND     x_19      100.        
 UI BOUND     x_20      100.        
 UI BOUND     x_21      100.        
 UI BOUND     x_22      100.        
 UI BOUND     x_23      100.        
 UI BOUND     x_24      100.        
 UI BOUND     x_25      100.        
 UI BOUND     x_26      100.        
 UI BOUND     x_27      100.        
 UI BOUND     x_28      100.        
 UI BOUND     x_29      100.        
 UI BOUND     x_30      100.        
 UI BOUND     x_31      100.        
ENDATA
